% File represents an instance of a Composite Structure problem to be solved by a CP framework
% Created on 2025-03-26 10:41:20.303
T = 56;
n = 9;
m = 12;
edges = [(2, 1),
(5, 4),
(8, 7),
(2, 3),
(6, 5),
(8, 9),
(1, 4),
(7, 4),
(2, 5),
(8, 5),
(6, 3),
(6, 9)];
counts = [|2, 24, 2, 22,
|2, 28, 2, 24,
|2, 22, 2, 24,
|2, 18, 2, 22,
|2, 22, 2, 24,
|2, 22, 2, 26,
|2, 20, 2, 24,
|2, 24, 2, 24,
|2, 22, 2, 24|];
